(declare-const a Real)
(declare-const b Real)
(declare-const c Real)
(assert (= (+ a b c) 3))
(assert (> a 0))
(assert (> b 0))
(assert (> c 0))
(assert (not (<= (+ (* (pow (* a (pow b 8) (pow b (pow c 8)) (pow c (pow a 8))) (pow (+ 1 (pow a 8) (pow c 8)) -1)) (+ -1 (* -1 (pow a 8)) (* -1 (pow c 8)))) (* (pow a 2) (pow b 2) (pow c 5)) (* (pow a 2) (pow b 5) (pow c 2)) (* (pow a 5) (pow b 2) (pow c 2))) 0)))
(check-sat)
(get-model)
(exit)